n= 4
m= 30
1000
2000
2500
3000
137	48	6
290	54	6
256	40	5
168	40	8
454	35	7
91	81	9
143	72	8
29	48	6
386	49	7
467	45	5
314	35	7
366	56	7
169	81	9
389	54	9
217	56	8
340	63	7
142	35	5
168	81	9
159	35	7
415	72	9
381	54	9
405	35	5
247	45	9
209	72	9
263	40	8
344	30	5
179	64	8
141	35	7
261	49	7
261	48	6
